p cnf 82 74
-1 2 10 14 15 16 42 46 53 62 66 -67 -68 -69 -71 -72 -73 -74 -75 -77 -78 -79 -80 -81 -82 0 
-2 1 10 14 15 16 42 46 53 62 67 -66 -68 -69 -71 -72 -73 -74 -75 -77 -78 -79 -80 -81 -82 0 
-3 27 34 40 65 -4 26 28 33 -5 68 -66 -67 -69 -71 -72 -73 -74 -75 -77 -78 -79 -80 -81 -82 0 
-6 69 -66 -67 -68 -71 -72 -73 -74 -75 -77 -78 -79 -80 -81 -82 0 
-7 23 48 70 -66 -67 -68 -69 -71 -72 -73 -74 -75 -77 -78 -79 -80 -81 -82 0 
-8 70 -66 -67 -68 -69 -71 -72 -73 -74 -75 -77 -78 -79 -80 -81 -82 0 
-9 18 70 -66 -67 -68 -69 -71 -72 -73 -74 -75 -77 -78 -79 -80 -81 -82 0 
-7 23 48 71 -66 -67 -68 -69 -72 -73 -74 -75 -77 -78 -79 -80 -81 -82 0 
-10 1 2 14 15 16 42 46 53 62 -11 72 -66 -67 -68 -69 -71 -73 -74 -75 -77 -78 -79 -80 -81 -82 0 
-5 -11 68 -66 -67 -69 -71 -72 -73 -74 -75 -77 -78 -79 -80 -81 -82 0 
-11 70 -66 -67 -68 -69 -71 -72 -73 -74 -75 -77 -78 -79 -80 -81 -82 0 
-12 70 -66 -67 -68 -69 -71 -72 -73 -74 -75 -77 -78 -79 -80 -81 -82 0 
-13 22 36 47 60 70 -66 -67 -68 -69 -71 -72 -73 -74 -75 -77 -78 -79 -80 -81 -82 0 
-14 1 2 10 15 16 42 46 53 62 73 -66 -67 -68 -69 -71 -72 -74 -75 -77 -78 -79 -80 -81 -82 0 
-3 27 34 40 65 73 -66 -67 -68 -69 -71 -72 -74 -75 -77 -78 -79 -80 -81 -82 0 
-15 1 2 10 14 16 42 46 53 62 74 -66 -67 -68 -69 -71 -72 -73 -75 -77 -78 -79 -80 -81 -82 0 
-16 1 2 10 14 15 42 46 53 62 -17 75 -66 -67 -68 -69 -71 -72 -73 -74 -77 -78 -79 -80 -81 -82 0 
-14 1 2 10 15 16 42 46 53 62 68 -66 -67 -69 -71 -72 -73 -74 -75 -77 -78 -79 -80 -81 -82 0 
-18 9 70 -66 -67 -68 -69 -71 -72 -73 -74 -75 -77 -78 -79 -80 -81 -82 0 
-19 45 70 -66 -67 -68 -69 -71 -72 -73 -74 -75 -77 -78 -79 -80 -81 -82 0 
-20 41 52 70 -66 -67 -68 -69 -71 -72 -73 -74 -75 -77 -78 -79 -80 -81 -82 0 
-21 70 -66 -67 -68 -69 -71 -72 -73 -74 -75 -77 -78 -79 -80 -81 -82 0 
-22 13 36 47 60 70 -66 -67 -68 -69 -71 -72 -73 -74 -75 -77 -78 -79 -80 -81 -82 0 
-23 7 48 76 -66 -67 -68 -69 -71 -72 -73 -74 -75 -77 -78 -79 -80 -81 -82 -19 -45 0 
-4 26 28 33 -5 68 -66 -67 -69 -71 -72 -73 -74 -75 -77 -78 -79 -80 -81 -82 0 
-24 35 49 55 56 59 64 68 -66 -67 -69 -71 -72 -73 -74 -75 -77 -78 -79 -80 -81 -82 0 
-25 74 -66 -67 -68 -69 -71 -72 -73 -75 -77 -78 -79 -80 -81 -82 0 
-26 4 28 33 -25 74 -66 -67 -68 -69 -71 -72 -73 -75 -77 -78 -79 -80 -81 -82 0 
-27 3 34 40 65 68 -66 -67 -69 -71 -72 -73 -74 -75 -77 -78 -79 -80 -81 -82 0 
-28 4 26 33 -5 68 -66 -67 -69 -71 -72 -73 -74 -75 -77 -78 -79 -80 -81 -82 0 
-29 63 71 -66 -67 -68 -69 -72 -73 -74 -75 -77 -78 -79 -80 -81 -82 0 
-29 63 70 -66 -67 -68 -69 -71 -72 -73 -74 -75 -77 -78 -79 -80 -81 -82 0 
-30 71 -66 -67 -68 -69 -72 -73 -74 -75 -77 -78 -79 -80 -81 -82 0 
-31 54 68 -66 -67 -69 -71 -72 -73 -74 -75 -77 -78 -79 -80 -81 -82 0 
-32 70 -66 -67 -68 -69 -71 -72 -73 -74 -75 -77 -78 -79 -80 -81 -82 0 
-3 27 34 40 65 -33 4 26 28 -5 68 -66 -67 -69 -71 -72 -73 -74 -75 -77 -78 -79 -80 -81 -82 0 
-34 3 27 40 65 -35 24 49 55 56 59 64 -5 68 -66 -67 -69 -71 -72 -73 -74 -75 -77 -78 -79 -80 -81 -82 0 
-36 13 22 47 60 70 -66 -67 -68 -69 -71 -72 -73 -74 -75 -77 -78 -79 -80 -81 -82 0 
-25 70 -66 -67 -68 -69 -71 -72 -73 -74 -75 -77 -78 -79 -80 -81 -82 0 
-37 -38 70 -66 -67 -68 -69 -71 -72 -73 -74 -75 -77 -78 -79 -80 -81 -82 0 
-39 71 -66 -67 -68 -69 -72 -73 -74 -75 -77 -78 -79 -80 -81 -82 0 
-40 3 27 34 65 74 -66 -67 -68 -69 -71 -72 -73 -75 -77 -78 -79 -80 -81 -82 0 
-8 71 -66 -67 -68 -69 -72 -73 -74 -75 -77 -78 -79 -80 -81 -82 0 
-41 20 52 70 -66 -67 -68 -69 -71 -72 -73 -74 -75 -77 -78 -79 -80 -81 -82 0 
-42 1 2 10 14 15 16 46 53 62 77 -66 -67 -68 -69 -71 -72 -73 -74 -75 -78 -79 -80 -81 -82 0 
-26 4 28 33 74 -66 -67 -68 -69 -71 -72 -73 -75 -77 -78 -79 -80 -81 -82 0 
-43 70 -66 -67 -68 -69 -71 -72 -73 -74 -75 -77 -78 -79 -80 -81 -82 0 
-44 71 -66 -67 -68 -69 -72 -73 -74 -75 -77 -78 -79 -80 -81 -82 0 
-40 3 27 34 65 -5 74 -66 -67 -68 -69 -71 -72 -73 -75 -77 -78 -79 -80 -81 -82 0 
-45 19 -46 1 2 10 14 15 16 42 53 62 78 -66 -67 -68 -69 -71 -72 -73 -74 -75 -77 -79 -80 -81 -82 0 
-46 1 2 10 14 15 16 42 53 62 -47 13 22 36 60 79 -66 -67 -68 -69 -71 -72 -73 -74 -75 -77 -78 -80 -81 -82 0 
-48 7 23 80 -66 -67 -68 -69 -71 -72 -73 -74 -75 -77 -78 -79 -81 -82 0 
-33 4 26 28 73 -66 -67 -68 -69 -71 -72 -74 -75 -77 -78 -79 -80 -81 -82 0 
-35 24 49 55 56 59 64 73 -66 -67 -68 -69 -71 -72 -74 -75 -77 -78 -79 -80 -81 -82 0 
-49 24 35 55 56 59 64 73 -66 -67 -68 -69 -71 -72 -74 -75 -77 -78 -79 -80 -81 -82 0 
-10 1 2 14 15 16 42 46 53 62 -50 72 -66 -67 -68 -69 -71 -73 -74 -75 -77 -78 -79 -80 -81 -82 0 
-5 -50 68 -66 -67 -69 -71 -72 -73 -74 -75 -77 -78 -79 -80 -81 -82 0 
-50 70 -66 -67 -68 -69 -71 -72 -73 -74 -75 -77 -78 -79 -80 -81 -82 0 
-51 -8 70 -66 -67 -68 -69 -71 -72 -73 -74 -75 -77 -78 -79 -80 -81 -82 0 
-51 -9 18 70 -66 -67 -68 -69 -71 -72 -73 -74 -75 -77 -78 -79 -80 -81 -82 0 
-52 20 41 -53 1 2 10 14 15 16 42 46 62 81 -66 -67 -68 -69 -71 -72 -73 -74 -75 -77 -78 -79 -80 -82 0 
-54 31 70 -66 -67 -68 -69 -71 -72 -73 -74 -75 -77 -78 -79 -80 -81 -82 0 
-21 -25 70 -66 -67 -68 -69 -71 -72 -73 -74 -75 -77 -78 -79 -80 -81 -82 0 
-55 24 35 49 56 59 64 70 -66 -67 -68 -69 -71 -72 -73 -74 -75 -77 -78 -79 -80 -81 -82 0 
-56 24 35 49 55 59 64 70 -66 -67 -68 -69 -71 -72 -73 -74 -75 -77 -78 -79 -80 -81 -82 0 
-57 -58 71 -66 -67 -68 -69 -72 -73 -74 -75 -77 -78 -79 -80 -81 -82 0 
-52 20 41 -59 24 35 49 55 56 64 71 -66 -67 -68 -69 -72 -73 -74 -75 -77 -78 -79 -80 -81 -82 0 
-29 63 -51 70 -66 -67 -68 -69 -71 -72 -73 -74 -75 -77 -78 -79 -80 -81 -82 0 
-60 13 22 36 47 70 -66 -67 -68 -69 -71 -72 -73 -74 -75 -77 -78 -79 -80 -81 -82 0 
-61 70 -66 -67 -68 -69 -71 -72 -73 -74 -75 -77 -78 -79 -80 -81 -82 0 
-62 1 2 10 14 15 16 42 46 53 82 -66 -67 -68 -69 -71 -72 -73 -74 -75 -77 -78 -79 -80 -81 0 
-63 29 -14 1 2 10 15 16 42 46 53 62 73 -66 -67 -68 -69 -71 -72 -74 -75 -77 -78 -79 -80 -81 -82 0 
-29 63 -64 24 35 49 55 56 59 70 -66 -67 -68 -69 -71 -72 -73 -74 -75 -77 -78 -79 -80 -81 -82 0 
-65 3 27 34 40 74 -66 -67 -68 -69 -71 -72 -73 -75 -77 -78 -79 -80 -81 -82 0 
